5347664724990158889501,15,1,2,010,9,1,2,014,1,1,2,03,1,1,2,02,12,1,2,05,14,1,2,02,14,1,2,015,5,1,2,010,5,1,2,06,5,1,2,015,6,1,2,08,13,1,2,03,8,1,2,07,1,1,2,014,4,1,2,09,9,1,2,07,7,1,2,010,12,1,2,01,2,1,2,014,7,1,2,014,4,1,2,011,15,1,2,04,11,1,2,08,15,1,2,02,2,1,2,05,7,1,2,015,5,1,2,09,6,1,2,09,5,1,2,03,12,1,2,03,2,1,2,05,14,1,2,01,1,1,2,07,4,1,2,014,5,1,2,09,13,1,2,04,10,1,2,010,14,1,2,07,9,1,2,08,7,1,2,015,9,1,2,04,1,1,2,014,8,1,2,08,8,1,2,011,7,1,2,04,1,1,2,06,10,1,2,010,9,1,2,06,12,1,2,015,3,1,2,0